(set-logic ALL)
(declare-fun var0 () String)
(assert (str.in_re var0 (re.++ (re.* (re.* (str.to_re "00"))) (re.++ (re.* (re.* (str.to_re "11"))) (re.++ (re.union (re.* (str.to_re "22")) (re.* (str.to_re "33"))) (re.++ (re.* (re.* (str.to_re "44"))) (re.++ (re.* (re.union (str.to_re "5") (str.to_re "66"))) (re.++ (re.* (re.union (str.to_re "7") (str.to_re "88"))) (re.++ (re.union (re.+ (str.to_re "999")) (re.+ (str.to_re "aa"))) (re.++ (re.* (re.+ (str.to_re "bbb"))) (re.++ (re.* (re.* (str.to_re "ccc"))) (re.++ (re.+ (re.+ (str.to_re "dd"))) (re.++ (re.+ (re.+ (str.to_re "ee"))) (re.++ (re.+ (re.* (str.to_re "fff"))) (re.++ (re.+ (re.+ (str.to_re "g"))) (re.++ (re.* (re.union (str.to_re "h") (str.to_re "ii"))) (re.++ (re.* (re.union (str.to_re "j") (str.to_re "kk"))) (re.++ (re.* (re.* (str.to_re "l"))) (re.++ (re.* (re.union (str.to_re "mm") (str.to_re "n"))) (re.++ (re.union (re.* (str.to_re "ooo")) (re.* (str.to_re "pp"))) (re.++ (re.* (re.* (str.to_re "qq"))) (re.++ (re.* (re.union (str.to_re "rr") (str.to_re "s"))) (re.++ (re.union (re.union (str.to_re "tt") (str.to_re "uuu")) (re.union (str.to_re "vv") (str.to_re "www"))) (re.++ (re.+ (re.* (str.to_re "xx"))) (re.++ (re.* (re.+ (str.to_re "yy"))) (re.++ (re.+ (re.union (str.to_re "zzz") (str.to_re "AA"))) (re.++ (re.+ (re.+ (str.to_re "B"))) (re.++ (re.union (re.+ (str.to_re "CCC")) (re.+ (str.to_re "D"))) (re.++ (re.+ (re.+ (str.to_re "E"))) (re.++ (re.union (re.union (str.to_re "F") (str.to_re "G")) (re.union (str.to_re "H") (str.to_re "I"))) (re.++ (re.* (re.union (str.to_re "JJJ") (str.to_re "KK"))) (re.++ (re.+ (re.union (str.to_re "LL") (str.to_re "M"))) (re.++ (re.union (re.union (str.to_re "N") (str.to_re "OOO")) (re.union (str.to_re "PP") (str.to_re "QQ"))) (re.++ (re.+ (re.+ (str.to_re "R"))) (re.++ (re.union (re.union (str.to_re "SS") (str.to_re "T")) (re.union (str.to_re "UUU") (str.to_re "VVV"))) (re.++ (re.+ (re.+ (str.to_re "WW"))) (re.++ (re.* (re.* (str.to_re "XX"))) (re.++ (re.+ (re.union (str.to_re "YY") (str.to_re "Z"))) (re.++ (re.* (re.union (str.to_re "!!") (str.to_re """"""))) (re.++ (re.* (re.+ (str.to_re "###"))) (re.++ (re.union (re.union (str.to_re "$$") (str.to_re "%%%")) (re.union (str.to_re "&") (str.to_re "''"))) (re.++ (re.+ (re.union (str.to_re "(") (str.to_re ")"))) (re.++ (re.union (re.union (str.to_re "**") (str.to_re "+")) (re.union (str.to_re ",,") (str.to_re "-"))) (re.++ (re.* (re.+ (str.to_re ".."))) (re.++ (re.+ (re.+ (str.to_re "//"))) (re.++ (re.* (re.+ (str.to_re "::"))) (re.++ (re.* (re.+ (str.to_re ";;;"))) (re.++ (re.union (re.union (str.to_re "<<") (str.to_re "=")) (re.union (str.to_re ">") (str.to_re "?"))) (re.++ (re.* (re.* (str.to_re "@"))) (re.++ (re.union (re.* (str.to_re "[[[")) (re.* (str.to_re "\\\\\\"))) (re.++ (re.+ (re.+ (str.to_re "]]]"))) (re.++ (re.+ (re.* (str.to_re "^^^"))) (re.++ (re.+ (re.union (str.to_re "___") (str.to_re "```"))) (re.++ (re.+ (re.union (str.to_re "{{{") (str.to_re "||"))) (re.++ (re.+ (re.union (str.to_re "}}") (str.to_re "~~"))) (re.++ (re.* (re.* (str.to_re "00"))) (re.++ (re.+ (re.+ (str.to_re "1"))) (re.++ (re.union (re.+ (str.to_re "2")) (re.+ (str.to_re "3"))) (re.++ (re.union (re.* (str.to_re "444")) (re.* (str.to_re "55"))) (re.++ (re.union (re.+ (str.to_re "666")) (re.+ (str.to_re "77"))) (re.++ (re.+ (re.+ (str.to_re "888"))) (re.++ (re.union (re.* (str.to_re "99")) (re.* (str.to_re "aaa"))) (re.++ (re.* (re.union (str.to_re "bbb") (str.to_re "c"))) (re.++ (re.+ (re.union (str.to_re "d") (str.to_re "e"))) (re.++ (re.+ (re.union (str.to_re "ff") (str.to_re "g"))) (re.++ (re.* (re.+ (str.to_re "hhh"))) (re.++ (re.union (re.* (str.to_re "iii")) (re.* (str.to_re "jj"))) (re.++ (re.union (re.union (str.to_re "kkk") (str.to_re "lll")) (re.union (str.to_re "mm") (str.to_re "nn"))) (re.++ (re.union (re.* (str.to_re "ooo")) (re.* (str.to_re "pp"))) (re.++ (re.* (re.* (str.to_re "qqq"))) (re.++ (re.* (re.union (str.to_re "rrr") (str.to_re "sss"))) (re.++ (re.+ (re.union (str.to_re "tt") (str.to_re "uuu"))) (re.++ (re.+ (re.* (str.to_re "vv"))) (re.++ (re.+ (re.* (str.to_re "ww"))) (re.++ (re.+ (re.union (str.to_re "xxx") (str.to_re "yy"))) (re.++ (re.+ (re.+ (str.to_re "z"))) (re.++ (re.* (re.* (str.to_re "AA"))) (re.++ (re.* (re.+ (str.to_re "BB"))) (re.++ (re.* (re.* (str.to_re "CCC"))) (re.++ (re.* (re.* (str.to_re "DD"))) (re.++ (re.union (re.* (str.to_re "EEE")) (re.* (str.to_re "F"))) (re.++ (re.union (re.* (str.to_re "GGG")) (re.* (str.to_re "HHH"))) (re.++ (re.+ (re.union (str.to_re "II") (str.to_re "J"))) (re.++ (re.+ (re.+ (str.to_re "KKK"))) (re.++ (re.union (re.* (str.to_re "LLL")) (re.* (str.to_re "M"))) (re.++ (re.* (re.* (str.to_re "NNN"))) (re.++ (re.union (re.+ (str.to_re "O")) (re.+ (str.to_re "PP"))) (re.++ (re.+ (re.union (str.to_re "QQ") (str.to_re "RRR"))) (re.++ (re.union (re.+ (str.to_re "SSS")) (re.+ (str.to_re "T"))) (re.++ (re.union (re.union (str.to_re "U") (str.to_re "VV")) (re.union (str.to_re "WW") (str.to_re "XXX"))) (re.++ (re.* (re.+ (str.to_re "Y"))) (re.++ (re.+ (re.+ (str.to_re "ZZZ"))) (re.++ (re.union (re.+ (str.to_re "!!!")) (re.+ (str.to_re """"))) (re.++ (re.+ (re.* (str.to_re "###"))) (re.++ (re.* (re.* (str.to_re "$$"))) (re.++ (re.union (re.union (str.to_re "%%") (str.to_re "&&")) (re.union (str.to_re "''") (str.to_re "(("))) (re.++ (re.* (re.* (str.to_re ")))"))) (re.++ (re.* (re.* (str.to_re "*"))) (re.++ (re.* (re.union (str.to_re "+++") (str.to_re ",,"))) (re.++ (re.union (re.union (str.to_re "---") (str.to_re ".")) (re.union (str.to_re "/") (str.to_re "::"))) (re.++ (re.union (re.union (str.to_re ";;") (str.to_re "<")) (re.union (str.to_re "=") (str.to_re ">>"))) (re.++ (re.* (re.* (str.to_re "???"))) (re.++ (re.+ (re.+ (str.to_re "@"))) (re.++ (re.+ (re.+ (str.to_re "[["))) (re.++ (re.union (re.* (str.to_re "\\")) (re.* (str.to_re "]]"))) (re.++ (re.union (re.union (str.to_re "^^") (str.to_re "_")) (re.union (str.to_re "``") (str.to_re "{{"))) (re.++ (re.union (re.+ (str.to_re "||")) (re.+ (str.to_re "}"))) (re.++ (re.+ (re.* (str.to_re "~~"))) (re.++ (re.* (re.* (str.to_re "00"))) (re.++ (re.+ (re.+ (str.to_re "1"))) (re.++ (re.* (re.union (str.to_re "2") (str.to_re "3"))) (re.++ (re.+ (re.+ (str.to_re "44"))) (re.++ (re.+ (re.* (str.to_re "5"))) (re.++ (re.union (re.union (str.to_re "666") (str.to_re "7")) (re.union (str.to_re "8") (str.to_re "99"))) (re.++ (re.union (re.* (str.to_re "aa")) (re.* (str.to_re "b"))) (re.++ (re.union (re.union (str.to_re "cc") (str.to_re "dd")) (re.union (str.to_re "eee") (str.to_re "ff"))) (re.++ (re.* (re.* (str.to_re "g"))) (re.++ (re.* (re.union (str.to_re "hh") (str.to_re "iii"))) (re.++ (re.* (re.+ (str.to_re "jj"))) (re.++ (re.union (re.+ (str.to_re "kkk")) (re.+ (str.to_re "l"))) (re.++ (re.* (re.* (str.to_re "mm"))) (re.++ (re.+ (re.* (str.to_re "nn"))) (re.++ (re.* (re.* (str.to_re "oo"))) (re.++ (re.* (re.* (str.to_re "pp"))) (re.++ (re.* (re.+ (str.to_re "qqq"))) (re.++ (re.+ (re.* (str.to_re "rr"))) (re.++ (re.* (re.* (str.to_re "s"))) (re.++ (re.* (re.* (str.to_re "t"))) (re.++ (re.+ (re.* (str.to_re "uu"))) (re.++ (re.+ (re.* (str.to_re "vv"))) (re.++ (re.* (re.* (str.to_re "w"))) (re.++ (re.* (re.union (str.to_re "x") (str.to_re "yy"))) (re.++ (re.union (re.+ (str.to_re "z")) (re.+ (str.to_re "AA"))) (re.++ (re.+ (re.* (str.to_re "BBB"))) (re.++ (re.* (re.* (str.to_re "C"))) (re.++ (re.union (re.union (str.to_re "DDD") (str.to_re "EE")) (re.union (str.to_re "FFF") (str.to_re "GGG"))) (re.++ (re.* (re.+ (str.to_re "H"))) (re.++ (re.* (re.+ (str.to_re "II"))) (re.++ (re.+ (re.* (str.to_re "J"))) (re.++ (re.union (re.union (str.to_re "K") (str.to_re "L")) (re.union (str.to_re "MM") (str.to_re "N"))) (re.++ (re.union (re.union (str.to_re "OO") (str.to_re "P")) (re.union (str.to_re "QQ") (str.to_re "RRR"))) (re.++ (re.* (re.+ (str.to_re "SSS"))) (re.++ (re.* (re.union (str.to_re "T") (str.to_re "U"))) (re.++ (re.union (re.+ (str.to_re "VV")) (re.+ (str.to_re "WWW"))) (re.++ (re.+ (re.* (str.to_re "X"))) (re.++ (re.union (re.* (str.to_re "YY")) (re.* (str.to_re "ZZZ"))) (re.++ (re.* (re.* (str.to_re "!!!"))) (re.++ (re.union (re.union (str.to_re """") (str.to_re "##")) (re.union (str.to_re "$$$") (str.to_re "%%%"))) (re.++ (re.union (re.* (str.to_re "&&&")) (re.* (str.to_re "'"))) (re.++ (re.* (re.union (str.to_re "(") (str.to_re "))"))) (re.++ (re.* (re.* (str.to_re "*"))) (re.++ (re.union (re.+ (str.to_re "+")) (re.+ (str.to_re ",,"))) (re.++ (re.* (re.union (str.to_re "--") (str.to_re ".."))) (re.++ (re.union (re.+ (str.to_re "//")) (re.+ (str.to_re "::"))) (re.++ (re.+ (re.* (str.to_re ";;"))) (re.++ (re.union (re.+ (str.to_re "<<<")) (re.+ (str.to_re "==="))) (re.++ (re.union (re.union (str.to_re ">>>") (str.to_re "?")) (re.union (str.to_re "@@@") (str.to_re "[[["))) (re.++ (re.* (re.union (str.to_re "\\\\") (str.to_re "]"))) (re.++ (re.+ (re.+ (str.to_re "^^"))) (re.++ (re.+ (re.* (str.to_re "_"))) (re.++ (re.union (re.+ (str.to_re "`")) (re.+ (str.to_re "{{{"))) (re.++ (re.+ (re.* (str.to_re "|"))) (re.++ (re.* (re.+ (str.to_re "}}}"))) (re.++ (re.* (re.union (str.to_re "~~~") (str.to_re "0"))) (re.++ (re.union (re.+ (str.to_re "11")) (re.+ (str.to_re "2"))) (re.++ (re.union (re.union (str.to_re "333") (str.to_re "4")) (re.union (str.to_re "555") (str.to_re "6"))) (re.++ (re.union (re.union (str.to_re "7") (str.to_re "8")) (re.union (str.to_re "9") (str.to_re "aaa"))) (re.++ (re.* (re.union (str.to_re "bb") (str.to_re "cc"))) (re.++ (re.* (re.union (str.to_re "d") (str.to_re "ee"))) (re.++ (re.* (re.union (str.to_re "fff") (str.to_re "gg"))) (re.++ (re.+ (re.union (str.to_re "hhh") (str.to_re "i"))) (re.++ (re.union (re.+ (str.to_re "jj")) (re.+ (str.to_re "kk"))) (re.++ (re.* (re.* (str.to_re "ll"))) (re.++ (re.union (re.* (str.to_re "mm")) (re.* (str.to_re "nn"))) (re.++ (re.+ (re.+ (str.to_re "oo"))) (re.++ (re.+ (re.+ (str.to_re "ppp"))) (re.++ (re.* (re.+ (str.to_re "q"))) (re.++ (re.union (re.* (str.to_re "rrr")) (re.* (str.to_re "sss"))) (re.++ (re.union (re.* (str.to_re "ttt")) (re.* (str.to_re "u"))) (re.++ (re.* (re.union (str.to_re "v") (str.to_re "w"))) (re.++ (re.+ (re.* (str.to_re "xxx"))) (re.++ (re.union (re.union (str.to_re "y") (str.to_re "z")) (re.union (str.to_re "AAA") (str.to_re "BB"))) (re.++ (re.* (re.* (str.to_re "CC"))) (re.++ (re.+ (re.union (str.to_re "DDD") (str.to_re "E"))) (re.++ (re.union (re.* (str.to_re "F")) (re.* (str.to_re "GGG"))) (re.++ (re.+ (re.union (str.to_re "HH") (str.to_re "II"))) (re.++ (re.+ (re.* (str.to_re "JJJ"))) (re.++ (re.* (re.+ (str.to_re "KK"))) (re.++ (re.union (re.+ (str.to_re "L")) (re.+ (str.to_re "MMM"))) (re.++ (re.+ (re.* (str.to_re "NN"))) (re.++ (re.union (re.* (str.to_re "OO")) (re.* (str.to_re "P"))) (re.++ (re.+ (re.* (str.to_re "QQQ"))) (re.++ (re.+ (re.union (str.to_re "RRR") (str.to_re "S"))) (re.++ (re.union (re.+ (str.to_re "T")) (re.+ (str.to_re "UU"))) (re.++ (re.union (re.+ (str.to_re "VV")) (re.+ (str.to_re "WW"))) (re.++ (re.* (re.* (str.to_re "XX"))) (re.++ (re.* (re.+ (str.to_re "YYY"))) (re.++ (re.+ (re.+ (str.to_re "ZZ"))) (re.++ (re.+ (re.+ (str.to_re "!!"))) (re.++ (re.+ (re.* (str.to_re """"""""))) (re.++ (re.+ (re.union (str.to_re "#") (str.to_re "$$$"))) (re.++ (re.union (re.+ (str.to_re "%%")) (re.+ (str.to_re "&&&"))) (re.++ (re.union (re.union (str.to_re "'''") (str.to_re "((")) (re.union (str.to_re "))") (str.to_re "***"))) (re.++ (re.+ (re.union (str.to_re "+") (str.to_re ",,"))) (re.++ (re.union (re.+ (str.to_re "---")) (re.+ (str.to_re "..."))) (re.union (re.* (str.to_re "//")) (re.* (str.to_re ":"))))))))))))))))))))))))))))))))))))))))))))))))))))))))))))))))))))))))))))))))))))))))))))))))))))))))))))))))))))))))))))))))))))))))))))))))))))))))))))))))))))))))))))))))))))))))))))))))))))))))))))))))
(check-sat)